NAME: cuum240.tsp
TYPE: TSP
COMMENT: User-generated TSP file
DIMENSION: 240
EDGE_WEIGHT_TYPE: EUC_2D
NODE_COORD_SECTION
1 169.0 116.0
2 230.0 214.0
3 153.0 240.0
4 12.0 90.0
5 102.0 29.0
6 171.0 139.0
7 31.0 55.0
8 128.0 157.0
9 61.0 158.0
10 183.0 51.0
11 30.0 43.0
12 80.0 23.0
13 8.0 86.0
14 54.0 26.0
15 38.0 13.0
16 37.0 161.0
17 205.0 129.0
18 130.0 91.0
19 56.0 184.0
20 140.0 135.0
21 50.0 224.0
22 207.0 29.0
23 155.0 142.0
24 42.0 153.0
25 220.0 36.0
26 108.0 169.0
27 232.0 71.0
28 229.0 239.0
29 119.0 168.0
30 17.0 220.0
31 75.0 215.0
32 207.0 214.0
33 157.0 155.0
34 236.0 45.0
35 36.0 10.0
36 148.0 169.0
37 221.0 93.0
38 29.0 35.0
39 74.0 180.0
40 206.0 102.0
41 144.0 97.0
42 103.0 156.0
43 56.0 120.0
44 60.0 44.0
45 31.0 54.0
46 151.0 173.0
47 58.0 25.0
48 180.0 189.0
49 203.0 218.0
50 138.0 186.0
51 57.0 81.0
52 225.0 131.0
53 188.0 18.0
54 85.0 170.0
55 212.0 205.0
56 108.0 27.0
57 60.0 235.0
58 7.0 117.0
59 21.0 68.0
60 46.0 181.0
61 62.0 29.0
62 234.0 78.0
63 81.0 18.0
64 84.0 193.0
65 23.0 33.0
66 65.0 91.0
67 66.0 25.0
68 117.0 197.0
69 65.0 80.0
70 190.0 177.0
71 215.0 230.0
72 99.0 132.0
73 122.0 131.0
74 1.0 174.0
75 135.0 87.0
76 79.0 128.0
77 11.0 162.0
78 2.0 57.0
79 225.0 196.0
80 60.0 146.0
81 186.0 37.0
82 97.0 78.0
83 237.0 193.0
84 91.0 103.0
85 7.0 176.0
86 45.0 32.0
87 148.0 53.0
88 168.0 62.0
89 225.0 240.0
90 99.0 19.0
91 79.0 171.0
92 199.0 47.0
93 238.0 164.0
94 218.0 185.0
95 132.0 230.0
96 164.0 158.0
97 56.0 184.0
98 102.0 54.0
99 104.0 60.0
100 4.0 234.0
101 11.0 212.0
102 100.0 82.0
103 222.0 164.0
104 131.0 227.0
105 49.0 201.0
106 236.0 63.0
107 40.0 175.0
108 202.0 38.0
109 165.0 127.0
110 135.0 151.0
111 122.0 85.0
112 86.0 177.0
113 43.0 85.0
114 187.0 137.0
115 6.0 22.0
116 91.0 193.0
117 184.0 153.0
118 142.0 66.0
119 209.0 112.0
120 119.0 114.0
121 127.0 224.0
122 65.0 64.0
123 199.0 94.0
124 17.0 199.0
125 239.0 164.0
126 101.0 4.0
127 83.0 226.0
128 197.0 237.0
129 114.0 40.0
130 44.0 78.0
131 215.0 177.0
132 150.0 227.0
133 46.0 100.0
134 167.0 175.0
135 100.0 191.0
136 203.0 170.0
137 1.0 13.0
138 80.0 178.0
139 116.0 49.0
140 20.0 230.0
141 71.0 21.0
142 53.0 212.0
143 126.0 118.0
144 86.0 178.0
145 93.0 157.0
146 146.0 149.0
147 182.0 31.0
148 80.0 227.0
149 62.0 127.0
150 86.0 47.0
151 163.0 94.0
152 141.0 56.0
153 45.0 100.0
154 33.0 216.0
155 191.0 204.0
156 76.0 220.0
157 23.0 160.0
158 99.0 13.0
159 22.0 181.0
160 117.0 148.0
161 202.0 173.0
162 207.0 117.0
163 45.0 102.0
164 224.0 127.0
165 16.0 102.0
166 117.0 135.0
167 225.0 238.0
168 171.0 16.0
169 201.0 201.0
170 118.0 8.0
171 165.0 175.0
172 184.0 62.0
173 35.0 92.0
174 203.0 209.0
175 86.0 188.0
176 156.0 43.0
177 229.0 55.0
178 41.0 214.0
179 48.0 222.0
180 136.0 71.0
181 198.0 4.0
182 42.0 41.0
183 6.0 109.0
184 81.0 51.0
185 57.0 182.0
186 10.0 50.0
187 107.0 17.0
188 160.0 149.0
189 192.0 150.0
190 206.0 139.0
191 152.0 198.0
192 142.0 6.0
193 219.0 209.0
194 20.0 200.0
195 5.0 119.0
196 58.0 77.0
197 120.0 236.0
198 229.0 226.0
199 25.0 125.0
200 67.0 17.0
201 214.0 141.0
202 69.0 5.0
203 106.0 169.0
204 87.0 54.0
205 239.0 158.0
206 94.0 123.0
207 144.0 33.0
208 123.0 69.0
209 122.0 171.0
210 33.0 238.0
211 40.0 184.0
212 136.0 141.0
213 165.0 183.0
214 87.0 34.0
215 87.0 5.0
216 156.0 205.0
217 19.0 80.0
218 218.0 59.0
219 126.0 145.0
220 206.0 158.0
221 104.0 103.0
222 150.0 33.0
223 230.0 235.0
224 180.0 130.0
225 21.0 135.0
226 75.0 129.0
227 80.0 120.0
228 92.0 148.0
229 48.0 15.0
230 197.0 189.0
231 32.0 180.0
232 168.0 110.0
233 5.0 10.0
234 38.0 17.0
235 127.0 231.0
236 172.0 218.0
237 225.0 209.0
238 3.0 208.0
239 11.0 39.0
240 152.0 165.0
EOF





